p cnf 13 49
-1 3 -7 0
6 12 13 0
3 7 10 0
3 10 -12 0
-2 4 10 0
-3 5 13 0
2 -8 13 0
-1 -6 -7 0
1 5 10 0
-2 -7 10 0
-7 11 -13 0
3 8 13 0
5 6 -8 0
8 9 12 0
9 10 -11 0
6 8 10 0
6 9 13 0
-1 4 -8 0
-4 5 7 0
2 -3 10 0
3 -8 10 0
6 7 9 0
-2 4 -10 0
-1 4 12 0
-1 6 -11 0
-3 7 9 0
2 -3 7 0
4 -5 10 0
-4 -5 -11 0
-5 -8 -12 0
3 10 12 0
-3 4 12 0
-7 -11 -13 0
6 8 13 0
6 -10 13 0
10 -12 -13 0
-1 3 -9 0
-1 8 -13 0
-5 6 -11 0
3 -6 -9 0
1 2 9 0
2 6 8 0
3 -4 10 0
1 -4 12 0
-1 6 11 0
4 -6 -7 0
3 -5 9 0
1 3 -10 0
5 7 11 0
